(set-logic HORN)
(declare-fun state (Int Int (Array Int Int) Int Int Bool Bool Bool Int) Bool)
(assert (forall ((|E_11| Int) (|.y.9| Int) (|F_11| (Array Int Int)) (|D_11| Int) (|A_12| Int) (|.loc.10| Bool) (|.loc.11| Bool) (|.loc.12| Bool) (|G_11| Int) (|.loc.18| Bool) (|.y.17| Int) (|.y.16| Int) (|.y.13| Int) (|.y.15| (Array Int Int)) (|.loc.19| Bool) (|.y.14| Int) (|.loc.20| Bool) (|.xtv.1| Int)) (=> (and (and (not .loc.10) (not .loc.11)) (not .loc.12)) (state |E_11| |.y.9| |F_11| |D_11| |A_12| |.loc.10| |.loc.11| |.loc.12| |G_11|))))
(assert (forall ((|E_11| Int) (|.y.9| Int) (|F_11| (Array Int Int)) (|D_11| Int) (|A_12| Int) (|.loc.10| Bool) (|.loc.11| Bool) (|.loc.12| Bool) (|G_11| Int) (|.loc.18| Bool) (|.y.17| Int) (|.y.16| Int) (|.y.13| Int) (|.y.15| (Array Int Int)) (|.loc.19| Bool) (|.y.14| Int) (|.loc.20| Bool) (|.xtv.1| Int)) (=> (and (state |E_11| |.y.9| |F_11| |D_11| |A_12| |.loc.10| |.loc.11| |.loc.12| |G_11|) (let ((.def_19 (not .loc.10))) (let ((.def_20 (not .loc.11))) (let ((.def_22 (not .loc.12))) (let ((.def_26 (= (select F_11 G_11) 46))) (let ((.def_37 (<= E_11 0))) (let ((.def_38 (not .def_37))) (let ((.def_43 (or .def_37 (not (<= G_11 0))))) (let ((.def_44 (and (and (not (<= A_12 D_11)) (and (= (+ E_11 (+ D_11 (* (- 1) G_11))) 0) .def_38)) .def_43))) (let ((.def_54 (not .loc.18))) (let ((.def_58 (<= D_11 .y.9))) (let ((.def_61 (= E_11 .y.13))) (let ((.def_64 (= F_11 .y.15))) (let ((.def_84 (and .def_20 (and .def_19 .loc.18)))) (let ((.def_88 (not .loc.19))) (let ((.def_91 (= .y.14 0))) (let ((.def_93 (= D_11 .y.16))) (let ((.def_98 (and .def_38 .def_43))) (let ((.def_99 (and .loc.10 .def_98))) (let ((.def_104 (and .def_93 (and .def_88 (and .def_61 (and .def_20 (and .loc.18 .def_99))))))) (let ((.def_108 (= (+ .y.9 (* (- 1) .y.14)) (- 1)))) (let ((.def_112 (= (+ E_11 (+ .y.9 (* (- 1) G_11))) 0))) (let ((.def_114 (not .def_58))) (let ((.def_154 (not .loc.20))) (or (or (or (or (or (or (and (or (or (and .loc.12 (or (or (and (or (or (and (and .def_19 (and .loc.11 (and (not .def_26) .def_44))) .loc.18) (and (= D_11 .y.17) (and (and (and (and (= .y.16 0) (and .def_20 (and .loc.10 .def_54))) .def_58) .def_61) .def_64))) (and (= A_12 .y.17) (and (= (+ D_11 (* (- 1) .y.16)) (- 1)) (and .def_64 (and .def_61 (and .def_54 (and .def_19 (and .loc.11 (and .def_26 .def_44))))))))) .loc.19) (and (and (and (and .def_64 (and .def_61 (and .def_58 .def_84))) .def_88) .def_91) .def_93)) (and (and (and (and (= .y.15 (store F_11 G_11 46)) .def_104) .def_108) .def_112) .def_114))) (and .def_22 (and .def_93 (and .def_91 (and .def_88 (and .def_64 (and .def_61 (and .def_58 (and .def_54 (and .loc.10 .loc.11)))))))))) (and (= .y.15 (store F_11 G_11 45)) (and .def_114 (and .def_112 (and .def_108 (and .def_93 (and .def_88 (and .def_61 (and .def_20 (and .def_54 (and .def_19 (and .loc.12 .def_98)))))))))))) .loc.20) (and (and .def_22 (and .def_93 (and .def_91 (and .def_64 (and .def_61 (and .def_58 (and .loc.19 (and .loc.18 (and .loc.11 .def_19))))))))) .def_154)) (and (= .y.15 (store F_11 G_11 44)) (and .def_154 (and .def_22 (and .def_114 (and .def_112 (and .def_108 (and .def_93 (and .def_61 (and .loc.19 (and .loc.18 (and .loc.11 .def_99)))))))))))) (and .def_154 (and .def_22 (and .def_93 (and .def_91 (and .def_64 (and .def_61 (and .def_58 (and .def_20 (and .def_54 (and .loc.10 .loc.19))))))))))) (and (= .y.15 (store F_11 G_11 43)) (and .def_154 (and .def_22 (and .def_114 (and .def_112 (and .def_108 (and .def_93 (and .def_61 (and .def_54 (and .loc.19 (and .def_19 (and .loc.11 .def_98))))))))))))) (and (not (<= .y.13 0)) (and (not (<= .y.16 0)) (and .def_154 (and .def_22 (and .def_91 (and .def_84 .def_88))))))) (and (= .y.15 (store F_11 G_11 42)) (and .def_154 (and .def_22 (and .def_114 (and .def_112 (and .def_104 .def_108))))))))))))))))))))))))))))))) (state |.y.13| |.y.14| |.y.15| |.y.16| |.y.17| |.loc.18| |.loc.19| |.loc.20| |.xtv.1|))))
(assert (forall ((|E_11| Int) (|.y.9| Int) (|F_11| (Array Int Int)) (|D_11| Int) (|A_12| Int) (|.loc.10| Bool) (|.loc.11| Bool) (|.loc.12| Bool) (|G_11| Int) (|.loc.18| Bool) (|.y.17| Int) (|.y.16| Int) (|.y.13| Int) (|.y.15| (Array Int Int)) (|.loc.19| Bool) (|.y.14| Int) (|.loc.20| Bool) (|.xtv.1| Int)) (=> (state |E_11| |.y.9| |F_11| |D_11| |A_12| |.loc.10| |.loc.11| |.loc.12| |G_11|) (not (and .loc.12 (and .loc.10 .loc.11))))))
(check-sat)
